
   7    4
  10   10   10   10

   0   0   0   0   0   2 2 3 
  10  10  10  10  10   3 6 5 4 
   6  10  10  10  10   2 5 4 
   4  10  10  10  10   1 7
   9  10  10  10  10   1 7
   7  10  10  10  10   1 7
   0   0   0   0   0   0 
